keccakmac51264cube_min_key.sol
# Objective value = 95
X0Y0Z0 1
X0Y0Z1 1
X0Y0Z2 1
X0Y0Z3 1
X0Y0Z4 1
X0Y0Z5 1
X0Y0Z6 1
X0Y0Z7 1
X0Y0Z8 1
X0Y0Z9 1
X0Y0Z10 1
X0Y0Z11 0
X0Y0Z12 0
X0Y0Z13 1
X0Y0Z14 1
X0Y0Z15 1
X0Y0Z16 1
X0Y0Z17 1
X0Y0Z18 1
X0Y0Z19 1
X0Y0Z20 1
X0Y0Z21 1
X0Y0Z22 1
X0Y0Z23 0
X0Y0Z24 0
X0Y0Z25 1
X0Y0Z26 1
X0Y0Z27 1
X0Y0Z28 1
X0Y0Z29 1
X0Y0Z30 1
X0Y0Z31 1
X0Y0Z32 1
X0Y0Z33 1
X0Y0Z34 1
X0Y0Z35 0
X0Y0Z36 0
X0Y0Z37 1
X0Y0Z38 1
X0Y0Z39 1
X0Y0Z40 1
X0Y0Z41 1
X0Y0Z42 1
X0Y0Z43 1
X0Y0Z44 1
X0Y0Z45 1
X0Y0Z46 1
X0Y0Z47 0
X0Y0Z48 0
X0Y0Z49 1
X0Y0Z50 1
X0Y0Z51 1
X0Y0Z52 1
X0Y0Z53 1
X0Y0Z54 1
X0Y0Z55 1
X0Y0Z56 1
X0Y0Z57 1
X0Y0Z58 1
X0Y0Z59 1
X0Y0Z60 0
X0Y0Z61 1
X0Y0Z62 1
X0Y0Z63 0
X1Y0Z0 1
X1Y0Z1 1
X1Y0Z2 1
X1Y0Z3 1
X1Y0Z4 1
X1Y0Z5 1
X1Y0Z6 1
X1Y0Z7 1
X1Y0Z8 0
X1Y0Z9 0
X1Y0Z10 0
X1Y0Z11 0
X1Y0Z12 0
X1Y0Z13 1
X1Y0Z14 1
X1Y0Z15 1
X1Y0Z16 1
X1Y0Z17 1
X1Y0Z18 1
X1Y0Z19 1
X1Y0Z20 0
X1Y0Z21 0
X1Y0Z22 0
X1Y0Z23 0
X1Y0Z24 0
X1Y0Z25 1
X1Y0Z26 1
X1Y0Z27 1
X1Y0Z28 1
X1Y0Z29 1
X1Y0Z30 1
X1Y0Z31 1
X1Y0Z32 1
X1Y0Z33 0
X1Y0Z34 0
X1Y0Z35 0
X1Y0Z36 0
X1Y0Z37 0
X1Y0Z38 1
X1Y0Z39 1
X1Y0Z40 1
X1Y0Z41 1
X1Y0Z42 1
X1Y0Z43 1
X1Y0Z44 1
X1Y0Z45 1
X1Y0Z46 1
X1Y0Z47 0
X1Y0Z48 0
X1Y0Z49 0
X1Y0Z50 0
X1Y0Z51 1
X1Y0Z52 1
X1Y0Z53 1
X1Y0Z54 1
X1Y0Z55 1
X1Y0Z56 1
X1Y0Z57 1
X1Y0Z58 1
X1Y0Z59 1
X1Y0Z60 0
X1Y0Z61 0
X1Y0Z62 0
X1Y0Z63 0
X2Z0 0
X2Y0Z0 0
X2Y1Z0 0
X2Z1 1
X2Y0Z1 1
X2Y1Z1 1
X2Z2 1
X2Y0Z2 1
X2Y1Z2 1
X2Z3 0
X2Y0Z3 0
X2Y1Z3 0
X2Z4 0
X2Y0Z4 0
X2Y1Z4 0
X2Z5 0
X2Y0Z5 0
X2Y1Z5 0
X2Z6 0
X2Y0Z6 0
X2Y1Z6 0
X2Z7 0
X2Y0Z7 0
X2Y1Z7 0
X2Z8 1
X2Y0Z8 1
X2Y1Z8 1
X2Z9 1
X2Y0Z9 1
X2Y1Z9 1
X2Z10 1
X2Y0Z10 1
X2Y1Z10 1
X2Z11 1
X2Y0Z11 1
X2Y1Z11 1
X2Z12 1
X2Y0Z12 1
X2Y1Z12 1
X2Z13 1
X2Y0Z13 1
X2Y1Z13 1
X2Z14 1
X2Y0Z14 1
X2Y1Z14 1
X2Z15 0
X2Y0Z15 0
X2Y1Z15 0
X2Z16 0
X2Y0Z16 0
X2Y1Z16 0
X2Z17 0
X2Y0Z17 0
X2Y1Z17 0
X2Z18 0
X2Y0Z18 0
X2Y1Z18 0
X2Z19 0
X2Y0Z19 0
X2Y1Z19 0
X2Z20 1
X2Y0Z20 1
X2Y1Z20 1
X2Z21 1
X2Y0Z21 1
X2Y1Z21 1
X2Z22 1
X2Y0Z22 1
X2Y1Z22 1
X2Z23 1
X2Y0Z23 1
X2Y1Z23 1
X2Z24 1
X2Y0Z24 1
X2Y1Z24 1
X2Z25 1
X2Y0Z25 1
X2Y1Z25 1
X2Z26 1
X2Y0Z26 1
X2Y1Z26 1
X2Z27 0
X2Y0Z27 0
X2Y1Z27 0
X2Z28 0
X2Y0Z28 0
X2Y1Z28 0
X2Z29 0
X2Y0Z29 0
X2Y1Z29 0
X2Z30 0
X2Y0Z30 0
X2Y1Z30 0
X2Z31 0
X2Y0Z31 0
X2Y1Z31 0
X2Z32 0
X2Y0Z32 0
X2Y1Z32 0
X2Z33 1
X2Y0Z33 1
X2Y1Z33 1
X2Z34 1
X2Y0Z34 1
X2Y1Z34 1
X2Z35 1
X2Y0Z35 1
X2Y1Z35 1
X2Z36 1
X2Y0Z36 1
X2Y1Z36 1
X2Z37 1
X2Y0Z37 1
X2Y1Z37 1
X2Z38 1
X2Y0Z38 1
X2Y1Z38 1
X2Z39 0
X2Y0Z39 0
X2Y1Z39 0
X2Z40 0
X2Y0Z40 0
X2Y1Z40 0
X2Z41 1
X2Y0Z41 1
X2Y1Z41 1
X2Z42 0
X2Y0Z42 0
X2Y1Z42 0
X2Z43 0
X2Y0Z43 0
X2Y1Z43 0
X2Z44 0
X2Y0Z44 0
X2Y1Z44 0
X2Z45 0
X2Y0Z45 0
X2Y1Z45 0
X2Z46 1
X2Y0Z46 1
X2Y1Z46 1
X2Z47 1
X2Y0Z47 1
X2Y1Z47 1
X2Z48 1
X2Y0Z48 1
X2Y1Z48 1
X2Z49 1
X2Y0Z49 1
X2Y1Z49 1
X2Z50 1
X2Y0Z50 1
X2Y1Z50 1
X2Z51 0
X2Y0Z51 0
X2Y1Z51 0
X2Z52 0
X2Y0Z52 0
X2Y1Z52 0
X2Z53 1
X2Y0Z53 1
X2Y1Z53 1
X2Z54 1
X2Y0Z54 1
X2Y1Z54 1
X2Z55 0
X2Y0Z55 0
X2Y1Z55 0
X2Z56 0
X2Y0Z56 0
X2Y1Z56 0
X2Z57 0
X2Y0Z57 0
X2Y1Z57 0
X2Z58 0
X2Y0Z58 0
X2Y1Z58 0
X2Z59 1
X2Y0Z59 1
X2Y1Z59 1
X2Z60 1
X2Y0Z60 1
X2Y1Z60 1
X2Z61 1
X2Y0Z61 1
X2Y1Z61 1
X2Z62 1
X2Y0Z62 1
X2Y1Z62 1
X2Z63 1
X2Y0Z63 1
X2Y1Z63 1
X3Z0 1
X3Y0Z0 1
X3Y1Z0 1
X3Z1 1
X3Y0Z1 1
X3Y1Z1 1
X3Z2 0
X3Y0Z2 0
X3Y1Z2 0
X3Z3 0
X3Y0Z3 0
X3Y1Z3 0
X3Z4 0
X3Y0Z4 0
X3Y1Z4 0
X3Z5 0
X3Y0Z5 0
X3Y1Z5 0
X3Z6 0
X3Y0Z6 0
X3Y1Z6 0
X3Z7 1
X3Y0Z7 1
X3Y1Z7 1
X3Z8 0
X3Y0Z8 0
X3Y1Z8 0
X3Z9 0
X3Y0Z9 0
X3Y1Z9 0
X3Z10 1
X3Y0Z10 1
X3Y1Z10 1
X3Z11 1
X3Y0Z11 1
X3Y1Z11 1
X3Z12 1
X3Y0Z12 1
X3Y1Z12 1
X3Z13 1
X3Y0Z13 1
X3Y1Z13 1
X3Z14 1
X3Y0Z14 1
X3Y1Z14 1
X3Z15 0
X3Y0Z15 0
X3Y1Z15 0
X3Z16 0
X3Y0Z16 0
X3Y1Z16 0
X3Z17 0
X3Y0Z17 0
X3Y1Z17 0
X3Z18 0
X3Y0Z18 0
X3Y1Z18 0
X3Z19 0
X3Y0Z19 0
X3Y1Z19 0
X3Z20 0
X3Y0Z20 0
X3Y1Z20 0
X3Z21 0
X3Y0Z21 0
X3Y1Z21 0
X3Z22 1
X3Y0Z22 1
X3Y1Z22 1
X3Z23 1
X3Y0Z23 1
X3Y1Z23 1
X3Z24 1
X3Y0Z24 1
X3Y1Z24 1
X3Z25 1
X3Y0Z25 1
X3Y1Z25 1
X3Z26 1
X3Y0Z26 1
X3Y1Z26 1
X3Z27 0
X3Y0Z27 0
X3Y1Z27 0
X3Z28 0
X3Y0Z28 0
X3Y1Z28 0
X3Z29 0
X3Y0Z29 0
X3Y1Z29 0
X3Z30 0
X3Y0Z30 0
X3Y1Z30 0
X3Z31 0
X3Y0Z31 0
X3Y1Z31 0
X3Z32 0
X3Y0Z32 0
X3Y1Z32 0
X3Z33 0
X3Y0Z33 0
X3Y1Z33 0
X3Z34 1
X3Y0Z34 1
X3Y1Z34 1
X3Z35 1
X3Y0Z35 1
X3Y1Z35 1
X3Z36 1
X3Y0Z36 1
X3Y1Z36 1
X3Z37 1
X3Y0Z37 1
X3Y1Z37 1
X3Z38 1
X3Y0Z38 1
X3Y1Z38 1
X3Z39 1
X3Y0Z39 1
X3Y1Z39 1
X3Z40 0
X3Y0Z40 0
X3Y1Z40 0
X3Z41 0
X3Y0Z41 0
X3Y1Z41 0
X3Z42 0
X3Y0Z42 0
X3Y1Z42 0
X3Z43 0
X3Y0Z43 0
X3Y1Z43 0
X3Z44 0
X3Y0Z44 0
X3Y1Z44 0
X3Z45 0
X3Y0Z45 0
X3Y1Z45 0
X3Z46 1
X3Y0Z46 1
X3Y1Z46 1
X3Z47 1
X3Y0Z47 1
X3Y1Z47 1
X3Z48 0
X3Y0Z48 0
X3Y1Z48 0
X3Z49 1
X3Y0Z49 1
X3Y1Z49 1
X3Z50 1
X3Y0Z50 1
X3Y1Z50 1
X3Z51 1
X3Y0Z51 1
X3Y1Z51 1
X3Z52 1
X3Y0Z52 1
X3Y1Z52 1
X3Z53 0
X3Y0Z53 0
X3Y1Z53 0
X3Z54 0
X3Y0Z54 0
X3Y1Z54 0
X3Z55 0
X3Y0Z55 0
X3Y1Z55 0
X3Z56 0
X3Y0Z56 0
X3Y1Z56 0
X3Z57 0
X3Y0Z57 0
X3Y1Z57 0
X3Z58 1
X3Y0Z58 1
X3Y1Z58 1
X3Z59 1
X3Y0Z59 1
X3Y1Z59 1
X3Z60 0
X3Y0Z60 0
X3Y1Z60 0
X3Z61 0
X3Y0Z61 0
X3Y1Z61 0
X3Z62 1
X3Y0Z62 1
X3Y1Z62 1
X3Z63 1
X3Y0Z63 1
X3Y1Z63 1
